2
4
20
1 1.3 1.55 1.75 2.1
37 5 6 29 24 17 31 33 10 27 19 10 6 9 23 33 7 24 38 9 9 33 5 36 17 49 49 19 17 23 49 33 35 14 28 20 43 43 25 49 24 30 10 47 16 29 22 29 19 10 26 25 46 39 13 33 21 7 19 8 48 7 37 26 15 44 41 21 38 42 33 25 40 38 22 24 34 20 32 35 